20
3	52	31	82	49
10	64	3	57	4
1	36	70	59	54
3	1	53	67	37
8	22	47	31	87
3	91	50	78	6
2	69	18	42	71
8	71	52	26	52
6	64	48	84	73
4	58	90	25	83
3	76	70	53	58
5	54	44	16	29
8	12	81	97	34
6	73	50	15	91
7	29	54	64	4
8	4	20	65	88
9	40	77	54	19
3	97	0	86	11
1	68	13	69	22
3	54	43	23	73
